#######################



#######################
Set parameter TimeLimit to value 500
Set parameter SoftMemLimit to value 125
Set parameter MIPFocus to value 3
Set parameter LogFile to value 1003-MIPFocus3-Presolve1-TimeLimit500-k16x240-9.log
Set parameter Presolve to value 1
Set parameter Seed to value 19
Using license file /opt/gurobi/gurobi.lic

Gurobi Optimizer version 10.0.3 build v10.0.3rc0 (linux64)
Copyright (c) 2023, Gurobi Optimization, LLC

Read MPS format model from file /miplib2010/k16x240.mps.bz2
Reading time = 0.00 seconds
k16x240: 256 rows, 480 columns, 960 nonzeros

CPU model: Intel(R) Xeon(R) E-2388G CPU @ 3.20GHz, instruction set [SSE2|AVX|AVX2|AVX512]
Thread count: 8 physical cores, 16 logical processors, using up to 16 threads

Optimize a model with 256 rows, 480 columns and 960 nonzeros
Model fingerprint: 0x4e80885f
Variable types: 240 continuous, 240 integer (240 binary)
Coefficient statistics:
  Matrix range     [1e+00, 1e+03]
  Objective range  [1e+00, 1e+03]
  Bounds range     [1e+00, 1e+03]
  RHS range        [4e+00, 4e+02]
Found heuristic solution: objective 17517.000000
Presolve time: 0.00s
Presolved: 256 rows, 480 columns, 960 nonzeros
Variable types: 240 continuous, 240 integer (240 binary)

Root relaxation: objective 2.769838e+03, 51 iterations, 0.00 seconds (0.00 work units)

    Nodes    |    Current Node    |     Objective Bounds      |     Work
 Expl Unexpl |  Obj  Depth IntInf | Incumbent    BestBd   Gap | It/Node Time

     0     0 2769.83800    0   14 17517.0000 2769.83800  84.2%     -    0s
H    0     0                    11359.000000 2769.83800  75.6%     -    0s
H    0     0                    11195.000000 2769.83800  75.3%     -    0s
H    0     0                    11074.000000 8116.87580  26.7%     -    0s
H    0     0                    10916.000000 8116.87580  25.6%     -    0s
H    0     0                    10826.000000 8116.87580  25.0%     -    0s
     0     0 8116.87580    0   26 10826.0000 8116.87580  25.0%     -    0s
H    0     0                    10746.000000 8116.87580  24.5%     -    0s
     0     0 8630.79681    0   24 10746.0000 8630.79681  19.7%     -    0s
     0     0 8903.73830    0   13 10746.0000 8903.73830  17.1%     -    0s
     0     0 9039.86509    0   26 10746.0000 9039.86509  15.9%     -    0s
     0     0 9039.86509    0   23 10746.0000 9039.86509  15.9%     -    0s
     0     0 9102.14383    0   38 10746.0000 9102.14383  15.3%     -    0s
     0     0 9125.73733    0   37 10746.0000 9125.73733  15.1%     -    0s
     0     0 9198.38822    0   32 10746.0000 9198.38822  14.4%     -    0s
     0     0 9211.22435    0   37 10746.0000 9211.22435  14.3%     -    0s
     0     0 9255.59051    0   35 10746.0000 9255.59051  13.9%     -    0s
     0     0 9255.59051    0   35 10746.0000 9255.59051  13.9%     -    0s
     0     2 9255.59051    0   35 10746.0000 9255.59051  13.9%     -    0s
H   37    40                    10744.000000 9395.73400  12.5%  76.0    0s
H   38    40                    10674.000000 9395.73400  12.0%  77.0    0s
  5821  3893 10598.4661   33   33 10674.0000 10301.7290  3.49%  75.7    5s
 20476 10846     cutoff   36      10674.0000 10494.2476  1.68%  55.8   10s

Cutting planes:
  Gomory: 2
  Lift-and-project: 4
  Cover: 1
  Implied bound: 6
  MIR: 124
  Flow cover: 538
  Flow path: 34
  Zero half: 33
  Network: 25
  Relax-and-lift: 5

Explored 56767 nodes (1917562 simplex iterations) in 14.89 seconds (19.53 work units)
Thread count was 16 (of 16 available processors)

Solution count 9: 10674 10744 10746 ... 17517

Optimal solution found (tolerance 1.00e-04)
Best objective 1.067400000000e+04, best bound 1.067312776272e+04, gap 0.0082%
